50 11768

330
308
478
478
489
180
433
84
395
349
346
172
460
484
413
273
280
116
364
241
260
463
488
150
327
105
421
177
179
353
17
56
388
256
296
426
162
161
240
371
45
188
469
130
194
267
417
320
309
402
